10
0 16 6 5 33 1 2 34 37 18
16 0 23 18 1 0 25 5 0 10
6 23 0 6 8 0 9 77 16 0
5 18 6 0 15 11 18 1 34 3
33 1 8 15 0 67 31 4 0 95
1 0 0 11 67 0 35 0 38 2
2 25 9 18 31 35 0 33 11 10
34 5 77 1 4 0 33 0 22 74
37 0 16 34 0 38 11 22 0 28
18 10 0 3 95 2 10 74 28 0